(declare-const a Real)
(declare-const b Real)
(declare-const c Real)
(assert (= (+ a b c) 3))
(assert (> a 0))
(assert (> b 0))
(assert (> c 0))
(assert (not (<= (+ (* (pow (+ (* 245760 (pow b 3)) (* 360 c (pow (+ (* 2 a) (* 2 b)) 4))) -1) (pow (+ (* 360 c (pow (+ (* 2 a) (* 2 b)) 4)) (* 102400 c (pow b 3)) (* 143360 a (pow b 3))) 2)) (* -778240 a (pow c 4)) (* -778240 b (pow a 4)) (* -762880 c (pow b 4)) (* -155648 a (pow b 4)) (* -155648 b (pow c 4)) (* -143360 (pow a 2) (pow c 3)) (* -143360 (pow a 3) (pow b 2)) (* -140288 c (pow a 4)) (* 143360 (pow b 2) (pow c 3)) (* 389120 (pow a 3) (pow c 2)) (* 688128 a b (pow c 3)) (* 749568 a c (pow b 3)) (* 749568 b c (pow a 3))) 0)))
(check-sat)
(get-model)
(exit)